186 5
10 10 10 10 10 

0 0 0 0 0 0 3 2 14 26 
0 0 0 0 0 0 5 3 7 8 11 12 
9 0 0 0 1 0 1 4 
6 0 0 0 6 0 1 5 
1 0 0 0 4 0 1 6 
3 0 0 0 4 0 1 9 
7 0 0 0 5 0 1 10 
2 0 0 0 3 0 1 9 
4 0 0 0 5 0 1 13 
3 0 0 0 10 0 1 13 
4 0 0 0 6 0 1 13 
8 0 0 0 6 0 1 13 
0 0 0 0 0 0 1 38 
0 0 0 0 0 0 5 15 18 20 23 24 
7 1 0 0 0 0 2 22 16 
3 3 0 0 0 0 1 17 
9 10 0 0 0 0 1 19 
8 4 0 0 0 0 1 19 
2 6 0 0 0 0 1 21 
4 8 0 0 0 0 1 22 
5 4 0 0 0 0 1 25 
1 4 0 0 0 0 1 25 
2 6 0 0 0 0 1 25 
3 4 0 0 0 0 1 25 
0 0 0 0 0 0 1 38 
0 0 0 0 0 0 3 27 28 30 
10 0 0 1 0 0 2 36 29 
9 0 0 6 0 0 2 33 29 
7 0 0 6 0 0 2 32 31 
10 0 0 6 0 0 1 33 
7 0 0 8 0 0 1 34 
7 0 0 4 0 0 1 34 
2 0 0 3 0 0 1 34 
2 0 0 6 0 0 1 35 
2 0 0 4 0 0 1 37 
3 0 0 6 0 0 1 37 
0 0 0 0 0 0 1 38 
0 0 0 0 0 0 3 39 51 63 
0 0 0 0 0 0 4 40 42 43 49 
1 3 0 0 0 0 1 41 
7 2 0 0 0 0 2 47 44 
5 2 0 0 0 0 2 47 44 
3 4 0 0 0 0 3 48 47 46 
3 10 0 0 0 0 1 45 
10 4 0 0 0 0 1 46 
9 10 0 0 0 0 1 50 
6 9 0 0 0 0 1 50 
5 4 0 0 0 0 1 50 
9 2 0 0 0 0 1 50 
0 0 0 0 0 0 1 75 
0 0 0 0 0 0 2 52 56 
6 0 0 0 0 1 2 54 53 
5 0 0 0 0 7 3 60 58 57 
3 0 0 0 0 7 1 55 
2 0 0 0 0 5 3 61 60 58 
6 0 0 0 0 2 2 60 58 
3 0 0 0 0 6 2 61 59 
10 0 0 0 0 6 1 59 
9 0 0 0 0 3 1 62 
6 0 0 0 0 6 1 62 
1 0 0 0 0 7 1 62 
0 0 0 0 0 0 1 75 
0 0 0 0 0 0 4 64 65 66 69 
1 0 0 0 2 0 2 73 67 
3 0 0 0 5 0 2 73 68 
2 0 0 0 6 0 2 73 68 
4 0 0 0 4 0 1 68 
7 0 0 0 5 0 2 72 70 
8 0 0 0 6 0 2 72 70 
5 0 0 0 4 0 1 71 
6 0 0 0 10 0 1 74 
4 0 0 0 4 0 1 74 
10 0 0 0 4 0 1 74 
0 0 0 0 0 0 1 75 
0 0 0 0 0 0 3 76 88 100 
0 0 0 0 0 0 2 77 78 
9 1 0 0 0 0 2 80 79 
4 7 0 0 0 0 1 79 
5 7 0 0 0 0 3 85 82 81 
5 8 0 0 0 0 3 85 82 81 
4 7 0 0 0 0 2 84 83 
5 3 0 0 0 0 1 83 
6 2 0 0 0 0 1 86 
1 7 0 0 0 0 1 86 
4 4 0 0 0 0 1 86 
2 4 0 0 0 0 1 87 
0 0 0 0 0 0 1 112 
0 0 0 0 0 0 1 89 
10 0 0 0 1 0 2 91 90 
1 0 0 0 5 0 3 94 93 92 
7 0 0 0 1 0 1 92 
10 0 0 0 9 0 3 97 96 95 
5 0 0 0 5 0 2 97 95 
8 0 0 0 9 0 2 96 95 
3 0 0 0 6 0 1 98 
1 0 0 0 5 0 1 98 
7 0 0 0 6 0 1 98 
9 0 0 0 3 0 1 99 
0 0 0 0 0 0 1 112 
0 0 0 0 0 0 5 101 105 108 109 110 
2 0 0 0 1 0 1 102 
6 0 0 0 7 0 1 103 
2 0 0 0 6 0 1 104 
2 0 0 0 6 0 1 106 
7 0 0 0 2 0 1 107 
4 0 0 0 6 0 1 111 
10 0 0 0 5 0 1 111 
9 0 0 0 6 0 1 111 
9 0 0 0 4 0 1 111 
5 0 0 0 7 0 1 111 
0 0 0 0 0 0 1 112 
0 0 0 0 0 0 3 113 125 137 
0 0 0 0 0 0 1 114 
5 0 0 1 0 0 2 118 115 
10 0 0 2 0 0 2 117 116 
4 0 0 8 0 0 4 123 122 120 119 
6 0 0 5 0 0 4 123 122 120 119 
10 0 0 5 0 0 3 122 120 119 
6 0 0 8 0 0 1 121 
5 0 0 7 0 0 1 121 
4 0 0 5 0 0 1 124 
6 0 0 5 0 0 1 124 
2 0 0 4 0 0 1 124 
0 0 0 0 0 0 1 149 
0 0 0 0 0 0 2 126 127 
10 0 0 1 0 0 3 132 129 128 
4 0 0 2 0 0 3 135 132 131 
4 0 0 10 0 0 2 131 130 
5 0 0 6 0 0 2 135 133 
8 0 0 5 0 0 2 135 134 
8 0 0 7 0 0 1 133 
5 0 0 4 0 0 1 133 
2 0 0 5 0 0 1 134 
10 0 0 5 0 0 1 136 
7 0 0 5 0 0 1 136 
0 0 0 0 0 0 1 149 
0 0 0 0 0 0 3 138 140 143 
3 1 0 0 0 0 2 141 139 
9 6 0 0 0 0 2 146 142 
10 5 0 0 0 0 2 146 142 
3 7 0 0 0 0 2 147 146 
4 7 0 0 0 0 1 144 
4 5 0 0 0 0 1 145 
7 3 0 0 0 0 1 147 
6 5 0 0 0 0 1 146 
8 5 0 0 0 0 1 148 
2 6 0 0 0 0 1 148 
0 0 0 0 0 0 1 149 
0 0 0 0 0 0 3 150 162 174 
0 0 0 0 0 0 5 151 155 158 159 160 
3 0 0 0 1 0 2 157 152 
9 0 0 0 2 0 1 153 
9 0 0 0 8 0 1 154 
2 0 0 0 5 0 1 156 
2 0 0 0 7 0 1 157 
10 0 0 0 10 0 1 161 
2 0 0 0 4 0 1 161 
10 0 0 0 3 0 1 161 
10 0 0 0 2 0 1 161 
7 0 0 0 8 0 1 161 
0 0 0 0 0 0 1 186 
0 0 0 0 0 0 2 163 166 
2 0 1 0 0 0 3 172 171 164 
7 0 5 0 0 0 1 165 
2 0 8 0 0 0 3 170 169 167 
9 0 8 0 0 0 2 172 171 
10 0 3 0 0 0 1 168 
6 0 4 0 0 0 1 173 
7 0 6 0 0 0 1 173 
10 0 3 0 0 0 1 173 
10 0 4 0 0 0 1 173 
8 0 8 0 0 0 1 173 
0 0 0 0 0 0 1 186 
0 0 0 0 0 0 4 175 176 177 181 
6 0 0 1 0 0 2 180 179 
8 0 0 8 0 0 1 178 
2 0 0 3 0 0 1 178 
9 0 0 5 0 0 1 179 
7 0 0 4 0 0 1 182 
7 0 0 5 0 0 1 182 
8 0 0 7 0 0 1 182 
10 0 0 2 0 0 2 184 183 
4 0 0 7 0 0 1 185 
1 0 0 8 0 0 1 185 
0 0 0 0 0 0 1 186 
0 0 0 0 0 0 0 
